143623
0,86,43,65,58,9,26,27,75,88,92,11,91,22,79,56,82,33,25,49,67,98,18,8,7,96,54,28,29,4,51,64,30,12,87,19,15,63,89,55,39,5,68,97,105,41,80,85,45,76,16,20,21,61,24,44,99,50,81,71,1,32,83,52,6,48,38,72,47,84,35,70,53,94,66,40,10,103,37,104,100,36,69,93,2,77,95,59,90,17,31,62,74,34,102,3,14,60,46,13,73,101,78,42,23,57,0